NAME          ClpDefau
ROWS
 N  OBJROW
 L  R_208_0
 L  R_208_1
 L  R_208_2
 L  R_208_3
 L  R_208_4
 L  R_208_5
 L  R_208_6
 L  R_208_7
COLUMNS
    x_0       OBJROW     -8.        
    x_1       OBJROW     -12.          R_208_7   3.          
    x_2       OBJROW     -11.          R_208_1   6.          
    x_2       R_208_2   9.             R_208_6   8.          
    x_3       OBJROW     -47.          R_208_7   7.          
    x_4       OBJROW     -22.       
    x_5       OBJROW     -95.       
    x_6       OBJROW     -86.          R_208_2   10.         
    x_7       OBJROW     -40.       
    x_8       OBJROW     -33.          R_208_1   6.          
    x_8       R_208_4   2.             R_208_5   1.          
    x_9       OBJROW     -78.          R_208_1   9.          
    x_9       R_208_2   5.          
    x_10      OBJROW     -28.          R_208_0   6.          
    x_10      R_208_3   2.             R_208_5   1.          
    x_10      R_208_7   3.          
    x_11      OBJROW     -78.          R_208_2   10.         
    x_11      R_208_3   4.             R_208_4   1.          
    x_11      R_208_5   10.         
    x_12      OBJROW     -5.           R_208_5   5.          
    x_13      OBJROW     -75.          R_208_5   8.          
    x_14      OBJROW     -88.       
    x_15      OBJROW     -21.          R_208_5   3.          
    x_15      R_208_6   4.          
RHS
    RHS       R_208_0   5.             R_208_1   11.         
    RHS       R_208_2   11.            R_208_3   18.         
    RHS       R_208_4   6.             R_208_5   12.         
    RHS       R_208_6   6.             R_208_7   11.         
BOUNDS
 UI BOUND     x_0       100.        
 UI BOUND     x_1       100.        
 UI BOUND     x_2       100.        
 UI BOUND     x_3       100.        
 UI BOUND     x_4       100.        
 UI BOUND     x_5       100.        
 UI BOUND     x_6       100.        
 UI BOUND     x_7       100.        
 UI BOUND     x_8       100.        
 UI BOUND     x_9       100.        
 UI BOUND     x_10      100.        
 UI BOUND     x_11      100.        
 UI BOUND     x_12      100.        
 UI BOUND     x_13      100.        
 UI BOUND     x_14      100.        
 UI BOUND     x_15      100.        
ENDATA
